db/data/103813244526924679932681247251584013976.z3.out
-------------------
2500.257095661
